46
62
61
31
79
41
67
73
65
29
28
49
48
74
92
47
24
102
16
77
87
44
82
95
17
106
107
0
63
3
13
83
75
21
40
53
100
58
51
10
76
55
91
110
38
71
64
26
8
99
89
37
96
30
43
23
94
5
52
108
2
66
11
85
81
72
12
56
33
20
54
14
7
25
105
60
9
39
97
104
42
68
32
90
27
57
109
88
86
50
4
98
101
84
103
45
93
80
78
59
